Results/Experiment 1 Results/Existing Benchmark/RES_60/i-60-50-15.txt
solutions: 2 nodes: 4  modelTime: 107  solveTime: 18  totalTime: 129  modelSize: 7849  readTime: 4 matchingSize: 30
