Results/Experiment 2 Results/Existing Benchmark/i-60-50-15.lp
clingo version 5.4.0
Reading from tempSRTISolver.lp ...
Solving...
Answer: 1
matched(53,1) matched(30,2) matched(11,3) matched(6,4) matched(45,5) matched(4,6) matched(15,7) matched(55,8) matched(60,9) matched(57,10) matched(3,11) matched(43,12) matched(52,13) matched(20,14) matched(7,15) matched(46,16) matched(38,17) matched(40,18) matched(49,19) matched(14,20) matched(28,21) matched(27,22) matched(36,23) matched(35,24) matched(41,25) matched(47,26) matched(22,27) matched(21,28) matched(34,29) matched(2,30) matched(37,31) matched(56,32) matched(51,33) matched(29,34) matched(24,35) matched(23,36) matched(31,37) matched(17,38) matched(54,39) matched(18,40) matched(25,41) matched(48,42) matched(12,43) matched(50,44) matched(5,45) matched(16,46) matched(26,47) matched(42,48) matched(19,49) matched(44,50) matched(33,51) matched(13,52) matched(1,53) matched(39,54) matched(8,55) matched(32,56) matched(10,57) matched(59,58) matched(58,59) matched(9,60)
Optimization: 326
Answer: 2
matched(5,1) matched(30,2) matched(11,3) matched(6,4) matched(1,5) matched(4,6) matched(15,7) matched(55,8) matched(27,9) matched(57,10) matched(3,11) matched(43,12) matched(25,13) matched(20,14) matched(7,15) matched(52,16) matched(38,17) matched(40,18) matched(49,19) matched(14,20) matched(28,21) matched(53,22) matched(36,23) matched(35,24) matched(13,25) matched(47,26) matched(9,27) matched(21,28) matched(34,29) matched(2,30) matched(37,31) matched(56,32) matched(51,33) matched(29,34) matched(24,35) matched(23,36) matched(31,37) matched(17,38) matched(54,39) matched(18,40) matched(60,41) matched(48,42) matched(12,43) matched(50,44) matched(46,45) matched(45,46) matched(26,47) matched(42,48) matched(19,49) matched(44,50) matched(33,51) matched(16,52) matched(22,53) matched(39,54) matched(8,55) matched(32,56) matched(10,57) matched(59,58) matched(58,59) matched(41,60)
Optimization: 307
OPTIMUM FOUND

Models       : 2
  Optimum    : yes
Optimization : 307
Calls        : 1
Time         : 0.909s (Solving: 0.08s 1st Model: 0.01s Unsat: 0.04s)
CPU Time     : 0.907s
